# Solution for model r5_t18_m7_6 Batch Number: 4
# Finished Task: 18 / 18
# Makespan: 607.0, Total Distance: 389.0, Total Time: 0.8621
# R O S F Batch
0 0 -1 0.0 0.0 -1
1 1 8 0.0 0.0 -1
2 2 6 0.0 0.0 -1
3 3 17 0.0 0.0 -1
4 4 9 0.0 0.0 -1
5 3 20 527.0 549.0 2
6 2 10 307.0 332.0 0
7 3 12 367.0 405.0 0
8 1 22 293.0 314.0 0
9 4 15 283.0 307.0 0
10 2 14 356.0 386.0 0
11 1 19 478.0 498.0 3
12 3 18 405.0 433.0 2
13 4 -1 512.0 549.0 2
14 2 -1 485.0 515.0 2
15 4 16 361.0 392.0 1
16 4 21 423.0 446.0 1
17 3 7 307.0 336.0 0
18 3 5 454.0 484.0 2
19 1 -1 552.0 582.0 3
20 3 -1 571.0 607.0 3
21 4 13 455.0 485.0 1
22 1 11 376.0 405.0 2
